NAME : EUR-3
TYPE : EUCLIDEAN
DIMENSION : 9
EDGE_WEIGHT_TYPE : EUC_2D
FLEET : 4
NODE_COORD_SECTION (CUSTOMER)
NODE	XCOORD	YCOORD	MINV	MAXV	SERV
1	37	52	0	4	0
2	49	49	1	1	3
3	52	64	1	1	4
4	20	26	2	4	2
5	40	30	1	1	3
6	21	47	1	1	4
7	17	63	1	1	2
8	31	62	2	4	5
9	52	33	1	1	3